benchmarks_CP/INST_36x36/30/inst36x36_30_51.dzn
S=6;
start=[|
-1,	2,	-1,	-1,	-1,	22,	-1,	-1,	-1,	10,	-1,	28,	-1,	-1,	-1,	12,	-1,	6,	-1,	-1,	-1,	-1,	-1,	-1,	8,	-1,	30,	11,	-1,	-1,	3,	-1,	-1,	-1,	-1,	-1|
27,	-1,	-1,	12,	21,	-1,	-1,	5,	26,	-1,	-1,	-1,	8,	-1,	-1,	28,	-1,	36,	-1,	23,	-1,	-1,	31,	-1,	-1,	-1,	-1,	-1,	29,	-1,	-1,	-1,	-1,	25,	-1,	-1|
-1,	-1,	-1,	-1,	-1,	-1,	-1,	2,	-1,	-1,	-1,	19,	-1,	-1,	-1,	-1,	-1,	-1,	-1,	35,	18,	30,	-1,	-1,	-1,	-1,	-1,	-1,	-1,	-1,	-1,	22,	-1,	13,	-1,	7|
-1,	-1,	6,	-1,	31,	7,	23,	-1,	-1,	-1,	-1,	25,	-1,	-1,	11,	19,	18,	-1,	-1,	22,	-1,	-1,	-1,	-1,	-1,	-1,	-1,	12,	-1,	36,	-1,	-1,	30,	-1,	10,	-1|
-1,	-1,	10,	-1,	-1,	-1,	-1,	-1,	-1,	-1,	4,	-1,	35,	-1,	-1,	-1,	-1,	-1,	-1,	36,	-1,	-1,	32,	-1,	-1,	-1,	-1,	-1,	-1,	3,	-1,	34,	-1,	-1,	-1,	-1|
5,	-1,	-1,	-1,	-1,	23,	-1,	-1,	-1,	-1,	18,	-1,	-1,	-1,	32,	-1,	29,	-1,	-1,	-1,	-1,	-1,	8,	-1,	-1,	16,	4,	1,	-1,	-1,	-1,	9,	-1,	36,	6,	-1|
-1,	-1,	-1,	-1,	-1,	-1,	9,	-1,	-1,	-1,	-1,	-1,	-1,	-1,	-1,	-1,	-1,	17,	-1,	16,	14,	18,	-1,	29,	-1,	19,	-1,	-1,	23,	-1,	-1,	-1,	-1,	-1,	-1,	-1|
-1,	-1,	-1,	-1,	17,	-1,	35,	-1,	-1,	-1,	8,	32,	-1,	-1,	-1,	-1,	28,	-1,	23,	34,	12,	-1,	-1,	-1,	-1,	-1,	-1,	-1,	36,	-1,	27,	-1,	-1,	-1,	4,	-1|
-1,	22,	-1,	-1,	-1,	-1,	-1,	19,	29,	-1,	-1,	14,	32,	-1,	-1,	13,	-1,	-1,	-1,	-1,	33,	24,	-1,	-1,	17,	-1,	-1,	-1,	-1,	-1,	-1,	-1,	-1,	-1,	8,	-1|
-1,	7,	-1,	-1,	-1,	-1,	-1,	-1,	-1,	28,	-1,	-1,	-1,	-1,	-1,	-1,	21,	-1,	-1,	-1,	-1,	-1,	-1,	-1,	34,	-1,	-1,	27,	26,	24,	1,	-1,	-1,	-1,	17,	-1|
-1,	28,	-1,	-1,	6,	-1,	-1,	-1,	-1,	-1,	-1,	30,	29,	-1,	-1,	2,	-1,	9,	-1,	-1,	-1,	-1,	-1,	-1,	-1,	-1,	3,	-1,	10,	-1,	-1,	18,	-1,	-1,	-1,	-1|
-1,	26,	27,	34,	15,	-1,	17,	6,	-1,	-1,	-1,	-1,	-1,	-1,	20,	-1,	-1,	19,	-1,	-1,	7,	28,	10,	-1,	-1,	32,	-1,	4,	-1,	29,	-1,	-1,	-1,	-1,	31,	-1|
31,	-1,	-1,	-1,	29,	-1,	-1,	4,	6,	7,	-1,	33,	-1,	-1,	-1,	-1,	12,	-1,	-1,	9,	-1,	-1,	-1,	-1,	-1,	-1,	-1,	23,	-1,	14,	30,	-1,	-1,	-1,	-1,	-1|
-1,	23,	-1,	-1,	-1,	-1,	-1,	-1,	-1,	-1,	-1,	21,	-1,	-1,	-1,	-1,	-1,	-1,	6,	-1,	13,	-1,	-1,	10,	25,	26,	33,	-1,	-1,	31,	-1,	-1,	32,	-1,	-1,	36|
-1,	-1,	-1,	-1,	32,	-1,	30,	23,	1,	-1,	14,	-1,	7,	-1,	27,	-1,	-1,	29,	-1,	-1,	-1,	-1,	-1,	-1,	-1,	-1,	-1,	24,	34,	-1,	-1,	4,	-1,	-1,	15,	-1|
-1,	27,	-1,	-1,	-1,	-1,	5,	-1,	-1,	15,	-1,	-1,	-1,	-1,	-1,	-1,	-1,	-1,	7,	-1,	-1,	-1,	3,	-1,	36,	12,	-1,	-1,	-1,	-1,	34,	25,	-1,	8,	18,	14|
30,	-1,	-1,	-1,	-1,	5,	-1,	-1,	-1,	-1,	-1,	10,	-1,	-1,	-1,	31,	14,	-1,	-1,	-1,	-1,	33,	-1,	-1,	11,	7,	1,	-1,	21,	-1,	-1,	-1,	-1,	-1,	-1,	-1|
-1,	11,	12,	25,	7,	-1,	-1,	-1,	-1,	31,	17,	-1,	-1,	-1,	-1,	-1,	-1,	-1,	19,	-1,	-1,	-1,	-1,	-1,	-1,	8,	10,	-1,	-1,	-1,	-1,	1,	-1,	-1,	-1,	-1|
-1,	-1,	-1,	-1,	27,	-1,	-1,	-1,	-1,	-1,	-1,	16,	-1,	-1,	-1,	3,	4,	1,	-1,	-1,	-1,	26,	-1,	23,	-1,	-1,	-1,	-1,	-1,	33,	-1,	24,	-1,	-1,	-1,	-1|
24,	-1,	-1,	-1,	33,	-1,	-1,	11,	15,	6,	19,	-1,	-1,	-1,	-1,	26,	-1,	-1,	-1,	-1,	20,	-1,	-1,	2,	9,	-1,	29,	32,	-1,	5,	-1,	35,	27,	-1,	-1,	-1|
-1,	31,	-1,	23,	-1,	-1,	-1,	-1,	-1,	-1,	-1,	-1,	-1,	-1,	28,	-1,	-1,	-1,	-1,	-1,	-1,	29,	-1,	-1,	24,	-1,	7,	-1,	-1,	-1,	16,	-1,	-1,	-1,	-1,	-1|
2,	-1,	-1,	-1,	-1,	-1,	-1,	-1,	-1,	-1,	21,	-1,	18,	14,	-1,	22,	-1,	5,	-1,	-1,	1,	6,	-1,	-1,	16,	11,	-1,	25,	-1,	23,	-1,	-1,	-1,	-1,	-1,	-1|
-1,	-1,	-1,	-1,	-1,	28,	-1,	31,	-1,	-1,	-1,	-1,	-1,	21,	-1,	-1,	-1,	-1,	-1,	-1,	-1,	-1,	-1,	-1,	-1,	6,	-1,	3,	-1,	12,	10,	-1,	11,	-1,	-1,	18|
-1,	20,	21,	-1,	-1,	-1,	13,	-1,	35,	-1,	24,	-1,	-1,	-1,	-1,	-1,	-1,	-1,	4,	30,	-1,	-1,	-1,	-1,	-1,	-1,	-1,	10,	28,	27,	6,	-1,	-1,	-1,	26,	25|
33,	-1,	26,	-1,	-1,	-1,	25,	35,	22,	-1,	-1,	-1,	-1,	-1,	-1,	9,	19,	-1,	1,	-1,	24,	-1,	-1,	-1,	-1,	23,	34,	-1,	-1,	-1,	15,	-1,	14,	-1,	-1,	-1|
9,	-1,	-1,	13,	-1,	-1,	34,	-1,	-1,	-1,	-1,	-1,	14,	-1,	21,	-1,	10,	-1,	-1,	-1,	35,	3,	-1,	-1,	4,	-1,	-1,	-1,	-1,	-1,	-1,	36,	-1,	11,	-1,	-1|
28,	-1,	-1,	-1,	-1,	21,	-1,	-1,	33,	29,	12,	-1,	22,	36,	-1,	-1,	3,	34,	-1,	-1,	-1,	7,	18,	-1,	2,	-1,	-1,	17,	-1,	-1,	4,	-1,	-1,	26,	-1,	-1|
4,	29,	-1,	-1,	-1,	-1,	-1,	-1,	10,	36,	-1,	6,	-1,	-1,	-1,	11,	-1,	-1,	-1,	14,	-1,	-1,	-1,	-1,	-1,	33,	-1,	30,	-1,	7,	5,	-1,	-1,	-1,	-1,	34|
-1,	-1,	-1,	30,	-1,	-1,	-1,	3,	-1,	32,	-1,	-1,	28,	5,	7,	15,	-1,	2,	16,	19,	-1,	-1,	-1,	-1,	27,	-1,	-1,	-1,	-1,	21,	-1,	-1,	6,	-1,	35,	-1|
-1,	10,	31,	19,	-1,	-1,	15,	-1,	-1,	-1,	-1,	-1,	-1,	-1,	-1,	-1,	-1,	-1,	20,	-1,	-1,	-1,	11,	-1,	-1,	24,	5,	-1,	-1,	1,	-1,	7,	25,	28,	-1,	-1|
18,	-1,	-1,	-1,	-1,	11,	-1,	-1,	-1,	-1,	-1,	-1,	-1,	4,	12,	-1,	-1,	-1,	-1,	7,	-1,	-1,	-1,	33,	-1,	-1,	-1,	34,	3,	20,	-1,	-1,	-1,	-1,	-1,	-1|
8,	33,	-1,	-1,	12,	31,	4,	-1,	-1,	-1,	34,	-1,	19,	-1,	-1,	-1,	-1,	7,	-1,	-1,	29,	25,	-1,	13,	15,	18,	-1,	-1,	1,	-1,	-1,	14,	-1,	-1,	-1,	32|
-1,	1,	-1,	10,	5,	-1,	3,	-1,	-1,	-1,	7,	-1,	15,	28,	-1,	-1,	-1,	35,	8,	-1,	-1,	21,	-1,	-1,	12,	-1,	-1,	-1,	-1,	32,	-1,	-1,	-1,	-1,	-1,	-1|
-1,	-1,	-1,	2,	-1,	-1,	-1,	-1,	-1,	-1,	-1,	-1,	-1,	-1,	-1,	-1,	31,	22,	-1,	-1,	-1,	-1,	12,	-1,	-1,	-1,	-1,	-1,	-1,	-1,	-1,	-1,	-1,	-1,	-1,	-1|
-1,	-1,	-1,	-1,	-1,	24,	-1,	-1,	-1,	-1,	-1,	-1,	3,	-1,	-1,	-1,	-1,	-1,	-1,	18,	-1,	-1,	-1,	-1,	13,	25,	-1,	21,	-1,	-1,	-1,	26,	-1,	-1,	7,	15|
-1,	-1,	-1,	-1,	-1,	-1,	-1,	-1,	-1,	-1,	-1,	-1,	-1,	-1,	-1,	-1,	11,	-1,	-1,	-1,	-1,	-1,	-1,	-1,	35,	-1,	26,	-1,	-1,	30,	31,	-1,	-1,	17,	-1,	-1|];
